<instance format="XCSP3" type="COP">
  <variables>
    <array id="kn" note="All necessary variables for XCSP3 are defined, begin creating XCSP3 file - Create a variable that defines the knowledge nodes to be covered" size="[20]"> 0 1 </array>
    <array id="lo" note="Create a variable that defines the available Learning Objects" size="[70]"> 0 1 </array>
    <array id="kp" note="Create a variable that defines the knowledge paths available" size="[10]"> 0 1 </array>
    <var id="adaptivity_score" note="# The goal of this next section is to define an adaptivity score that we can maximize."> 0..4999 </var>
  </variables>
  <constraints>
    <intension> eq(add(kp[0],kp[1],kp[2],kp[3],kp[4],kp[5],kp[6],kp[7],kp[8],kp[9]),1) </intension>
    <intension> imp(eq(kp[0],1),eq(kn[0],1)) </intension>
    <intension> imp(eq(kp[0],1),eq(kn[1],1)) </intension>
    <intension> imp(eq(kp[0],1),eq(kn[2],1)) </intension>
    <intension> imp(eq(kp[0],1),eq(kn[3],1)) </intension>
    <intension> imp(eq(kp[0],1),eq(kn[4],1)) </intension>
    <intension> imp(eq(kp[0],1),eq(kn[5],1)) </intension>
    <intension> imp(eq(kp[0],1),eq(kn[6],1)) </intension>
    <intension> imp(eq(kp[0],1),eq(kn[7],1)) </intension>
    <intension> imp(eq(kp[0],1),eq(kn[8],1)) </intension>
    <intension> imp(eq(kp[0],1),eq(kn[9],1)) </intension>
    <intension> imp(eq(kp[0],1),eq(kn[10],1)) </intension>
    <intension> imp(eq(kp[0],1),eq(kn[11],1)) </intension>
    <intension> imp(eq(kp[0],1),eq(kn[12],1)) </intension>
    <intension> imp(eq(kp[0],1),eq(kn[13],1)) </intension>
    <intension> imp(eq(kp[0],1),eq(kn[14],1)) </intension>
    <intension> imp(eq(kp[0],1),eq(kn[15],1)) </intension>
    <intension> imp(eq(kp[0],1),eq(kn[16],1)) </intension>
    <intension> imp(eq(kp[0],1),eq(kn[17],1)) </intension>
    <intension> imp(eq(kp[0],1),eq(kn[18],1)) </intension>
    <intension> imp(eq(kp[0],1),eq(kn[19],1)) </intension>
    <intension> imp(eq(kp[1],1),eq(kn[0],1)) </intension>
    <intension> imp(eq(kp[1],1),eq(kn[1],1)) </intension>
    <intension> imp(eq(kp[1],1),eq(kn[2],1)) </intension>
    <intension> imp(eq(kp[1],1),eq(kn[3],1)) </intension>
    <intension> imp(eq(kp[1],1),eq(kn[4],1)) </intension>
    <intension> imp(eq(kp[1],1),eq(kn[5],1)) </intension>
    <intension> imp(eq(kp[1],1),eq(kn[6],1)) </intension>
    <intension> imp(eq(kp[1],1),eq(kn[7],1)) </intension>
    <intension> imp(eq(kp[1],1),eq(kn[8],1)) </intension>
    <intension> imp(eq(kp[1],1),eq(kn[9],1)) </intension>
    <intension> imp(eq(kp[1],1),eq(kn[11],1)) </intension>
    <intension> imp(eq(kp[1],1),eq(kn[12],1)) </intension>
    <intension> imp(eq(kp[1],1),eq(kn[13],1)) </intension>
    <intension> imp(eq(kp[1],1),eq(kn[14],1)) </intension>
    <intension> imp(eq(kp[1],1),eq(kn[15],1)) </intension>
    <intension> imp(eq(kp[1],1),eq(kn[16],1)) </intension>
    <intension> imp(eq(kp[1],1),eq(kn[17],1)) </intension>
    <intension> imp(eq(kp[1],1),eq(kn[18],1)) </intension>
    <intension> imp(eq(kp[1],1),eq(kn[19],1)) </intension>
    <intension> imp(eq(kp[2],1),eq(kn[0],1)) </intension>
    <intension> imp(eq(kp[2],1),eq(kn[1],1)) </intension>
    <intension> imp(eq(kp[2],1),eq(kn[2],1)) </intension>
    <intension> imp(eq(kp[2],1),eq(kn[3],1)) </intension>
    <intension> imp(eq(kp[2],1),eq(kn[4],1)) </intension>
    <intension> imp(eq(kp[2],1),eq(kn[5],1)) </intension>
    <intension> imp(eq(kp[2],1),eq(kn[7],1)) </intension>
    <intension> imp(eq(kp[2],1),eq(kn[8],1)) </intension>
    <intension> imp(eq(kp[2],1),eq(kn[9],1)) </intension>
    <intension> imp(eq(kp[2],1),eq(kn[10],1)) </intension>
    <intension> imp(eq(kp[2],1),eq(kn[11],1)) </intension>
    <intension> imp(eq(kp[2],1),eq(kn[12],1)) </intension>
    <intension> imp(eq(kp[2],1),eq(kn[13],1)) </intension>
    <intension> imp(eq(kp[2],1),eq(kn[14],1)) </intension>
    <intension> imp(eq(kp[2],1),eq(kn[15],1)) </intension>
    <intension> imp(eq(kp[2],1),eq(kn[16],1)) </intension>
    <intension> imp(eq(kp[2],1),eq(kn[17],1)) </intension>
    <intension> imp(eq(kp[2],1),eq(kn[18],1)) </intension>
    <intension> imp(eq(kp[2],1),eq(kn[19],1)) </intension>
    <intension> imp(eq(kp[3],1),eq(kn[0],1)) </intension>
    <intension> imp(eq(kp[3],1),eq(kn[1],1)) </intension>
    <intension> imp(eq(kp[3],1),eq(kn[2],1)) </intension>
    <intension> imp(eq(kp[3],1),eq(kn[3],1)) </intension>
    <intension> imp(eq(kp[3],1),eq(kn[5],1)) </intension>
    <intension> imp(eq(kp[3],1),eq(kn[6],1)) </intension>
    <intension> imp(eq(kp[3],1),eq(kn[7],1)) </intension>
    <intension> imp(eq(kp[3],1),eq(kn[8],1)) </intension>
    <intension> imp(eq(kp[3],1),eq(kn[9],1)) </intension>
    <intension> imp(eq(kp[3],1),eq(kn[10],1)) </intension>
    <intension> imp(eq(kp[3],1),eq(kn[11],1)) </intension>
    <intension> imp(eq(kp[3],1),eq(kn[12],1)) </intension>
    <intension> imp(eq(kp[3],1),eq(kn[13],1)) </intension>
    <intension> imp(eq(kp[3],1),eq(kn[14],1)) </intension>
    <intension> imp(eq(kp[3],1),eq(kn[15],1)) </intension>
    <intension> imp(eq(kp[3],1),eq(kn[16],1)) </intension>
    <intension> imp(eq(kp[3],1),eq(kn[17],1)) </intension>
    <intension> imp(eq(kp[3],1),eq(kn[18],1)) </intension>
    <intension> imp(eq(kp[3],1),eq(kn[19],1)) </intension>
    <intension> imp(eq(kp[4],1),eq(kn[0],1)) </intension>
    <intension> imp(eq(kp[4],1),eq(kn[2],1)) </intension>
    <intension> imp(eq(kp[4],1),eq(kn[3],1)) </intension>
    <intension> imp(eq(kp[4],1),eq(kn[4],1)) </intension>
    <intension> imp(eq(kp[4],1),eq(kn[5],1)) </intension>
    <intension> imp(eq(kp[4],1),eq(kn[6],1)) </intension>
    <intension> imp(eq(kp[4],1),eq(kn[7],1)) </intension>
    <intension> imp(eq(kp[4],1),eq(kn[8],1)) </intension>
    <intension> imp(eq(kp[4],1),eq(kn[9],1)) </intension>
    <intension> imp(eq(kp[4],1),eq(kn[10],1)) </intension>
    <intension> imp(eq(kp[4],1),eq(kn[11],1)) </intension>
    <intension> imp(eq(kp[4],1),eq(kn[12],1)) </intension>
    <intension> imp(eq(kp[4],1),eq(kn[13],1)) </intension>
    <intension> imp(eq(kp[4],1),eq(kn[14],1)) </intension>
    <intension> imp(eq(kp[4],1),eq(kn[15],1)) </intension>
    <intension> imp(eq(kp[4],1),eq(kn[16],1)) </intension>
    <intension> imp(eq(kp[4],1),eq(kn[17],1)) </intension>
    <intension> imp(eq(kp[4],1),eq(kn[18],1)) </intension>
    <intension> imp(eq(kp[4],1),eq(kn[19],1)) </intension>
    <intension> imp(eq(kp[5],1),eq(kn[1],1)) </intension>
    <intension> imp(eq(kp[5],1),eq(kn[2],1)) </intension>
    <intension> imp(eq(kp[5],1),eq(kn[3],1)) </intension>
    <intension> imp(eq(kp[5],1),eq(kn[4],1)) </intension>
    <intension> imp(eq(kp[5],1),eq(kn[5],1)) </intension>
    <intension> imp(eq(kp[5],1),eq(kn[6],1)) </intension>
    <intension> imp(eq(kp[5],1),eq(kn[7],1)) </intension>
    <intension> imp(eq(kp[5],1),eq(kn[8],1)) </intension>
    <intension> imp(eq(kp[5],1),eq(kn[9],1)) </intension>
    <intension> imp(eq(kp[5],1),eq(kn[10],1)) </intension>
    <intension> imp(eq(kp[5],1),eq(kn[11],1)) </intension>
    <intension> imp(eq(kp[5],1),eq(kn[12],1)) </intension>
    <intension> imp(eq(kp[5],1),eq(kn[13],1)) </intension>
    <intension> imp(eq(kp[5],1),eq(kn[14],1)) </intension>
    <intension> imp(eq(kp[5],1),eq(kn[15],1)) </intension>
    <intension> imp(eq(kp[5],1),eq(kn[16],1)) </intension>
    <intension> imp(eq(kp[5],1),eq(kn[17],1)) </intension>
    <intension> imp(eq(kp[5],1),eq(kn[18],1)) </intension>
    <intension> imp(eq(kp[5],1),eq(kn[19],1)) </intension>
    <intension> imp(eq(kp[6],1),eq(kn[0],1)) </intension>
    <intension> imp(eq(kp[6],1),eq(kn[1],1)) </intension>
    <intension> imp(eq(kp[6],1),eq(kn[2],1)) </intension>
    <intension> imp(eq(kp[6],1),eq(kn[3],1)) </intension>
    <intension> imp(eq(kp[6],1),eq(kn[4],1)) </intension>
    <intension> imp(eq(kp[6],1),eq(kn[5],1)) </intension>
    <intension> imp(eq(kp[6],1),eq(kn[6],1)) </intension>
    <intension> imp(eq(kp[6],1),eq(kn[7],1)) </intension>
    <intension> imp(eq(kp[6],1),eq(kn[8],1)) </intension>
    <intension> imp(eq(kp[6],1),eq(kn[9],1)) </intension>
    <intension> imp(eq(kp[6],1),eq(kn[10],1)) </intension>
    <intension> imp(eq(kp[6],1),eq(kn[11],1)) </intension>
    <intension> imp(eq(kp[6],1),eq(kn[12],1)) </intension>
    <intension> imp(eq(kp[6],1),eq(kn[13],1)) </intension>
    <intension> imp(eq(kp[6],1),eq(kn[14],1)) </intension>
    <intension> imp(eq(kp[6],1),eq(kn[16],1)) </intension>
    <intension> imp(eq(kp[6],1),eq(kn[17],1)) </intension>
    <intension> imp(eq(kp[6],1),eq(kn[18],1)) </intension>
    <intension> imp(eq(kp[6],1),eq(kn[19],1)) </intension>
    <intension> imp(eq(kp[7],1),eq(kn[0],1)) </intension>
    <intension> imp(eq(kp[7],1),eq(kn[1],1)) </intension>
    <intension> imp(eq(kp[7],1),eq(kn[2],1)) </intension>
    <intension> imp(eq(kp[7],1),eq(kn[3],1)) </intension>
    <intension> imp(eq(kp[7],1),eq(kn[4],1)) </intension>
    <intension> imp(eq(kp[7],1),eq(kn[5],1)) </intension>
    <intension> imp(eq(kp[7],1),eq(kn[6],1)) </intension>
    <intension> imp(eq(kp[7],1),eq(kn[7],1)) </intension>
    <intension> imp(eq(kp[7],1),eq(kn[8],1)) </intension>
    <intension> imp(eq(kp[7],1),eq(kn[9],1)) </intension>
    <intension> imp(eq(kp[7],1),eq(kn[10],1)) </intension>
    <intension> imp(eq(kp[7],1),eq(kn[12],1)) </intension>
    <intension> imp(eq(kp[7],1),eq(kn[13],1)) </intension>
    <intension> imp(eq(kp[7],1),eq(kn[14],1)) </intension>
    <intension> imp(eq(kp[7],1),eq(kn[15],1)) </intension>
    <intension> imp(eq(kp[7],1),eq(kn[16],1)) </intension>
    <intension> imp(eq(kp[7],1),eq(kn[17],1)) </intension>
    <intension> imp(eq(kp[7],1),eq(kn[18],1)) </intension>
    <intension> imp(eq(kp[7],1),eq(kn[19],1)) </intension>
    <intension> imp(eq(kp[8],1),eq(kn[0],1)) </intension>
    <intension> imp(eq(kp[8],1),eq(kn[1],1)) </intension>
    <intension> imp(eq(kp[8],1),eq(kn[2],1)) </intension>
    <intension> imp(eq(kp[8],1),eq(kn[3],1)) </intension>
    <intension> imp(eq(kp[8],1),eq(kn[4],1)) </intension>
    <intension> imp(eq(kp[8],1),eq(kn[5],1)) </intension>
    <intension> imp(eq(kp[8],1),eq(kn[6],1)) </intension>
    <intension> imp(eq(kp[8],1),eq(kn[8],1)) </intension>
    <intension> imp(eq(kp[8],1),eq(kn[9],1)) </intension>
    <intension> imp(eq(kp[8],1),eq(kn[10],1)) </intension>
    <intension> imp(eq(kp[8],1),eq(kn[11],1)) </intension>
    <intension> imp(eq(kp[8],1),eq(kn[12],1)) </intension>
    <intension> imp(eq(kp[8],1),eq(kn[13],1)) </intension>
    <intension> imp(eq(kp[8],1),eq(kn[14],1)) </intension>
    <intension> imp(eq(kp[8],1),eq(kn[15],1)) </intension>
    <intension> imp(eq(kp[8],1),eq(kn[16],1)) </intension>
    <intension> imp(eq(kp[8],1),eq(kn[17],1)) </intension>
    <intension> imp(eq(kp[8],1),eq(kn[18],1)) </intension>
    <intension> imp(eq(kp[8],1),eq(kn[19],1)) </intension>
    <intension> imp(eq(kp[9],1),eq(kn[0],1)) </intension>
    <intension> imp(eq(kp[9],1),eq(kn[1],1)) </intension>
    <intension> imp(eq(kp[9],1),eq(kn[2],1)) </intension>
    <intension> imp(eq(kp[9],1),eq(kn[3],1)) </intension>
    <intension> imp(eq(kp[9],1),eq(kn[4],1)) </intension>
    <intension> imp(eq(kp[9],1),eq(kn[5],1)) </intension>
    <intension> imp(eq(kp[9],1),eq(kn[6],1)) </intension>
    <intension> imp(eq(kp[9],1),eq(kn[7],1)) </intension>
    <intension> imp(eq(kp[9],1),eq(kn[8],1)) </intension>
    <intension> imp(eq(kp[9],1),eq(kn[10],1)) </intension>
    <intension> imp(eq(kp[9],1),eq(kn[11],1)) </intension>
    <intension> imp(eq(kp[9],1),eq(kn[12],1)) </intension>
    <intension> imp(eq(kp[9],1),eq(kn[13],1)) </intension>
    <intension> imp(eq(kp[9],1),eq(kn[14],1)) </intension>
    <intension> imp(eq(kp[9],1),eq(kn[15],1)) </intension>
    <intension> imp(eq(kp[9],1),eq(kn[16],1)) </intension>
    <intension> imp(eq(kp[9],1),eq(kn[17],1)) </intension>
    <intension> imp(eq(kp[9],1),eq(kn[18],1)) </intension>
    <intension> imp(eq(kp[9],1),eq(kn[19],1)) </intension>
    <intension> imp(eq(kp[1],1),eq(kn[10],0)) </intension>
    <intension> imp(eq(kp[2],1),eq(kn[6],0)) </intension>
    <intension> imp(eq(kp[3],1),eq(kn[4],0)) </intension>
    <intension> imp(eq(kp[4],1),eq(kn[1],0)) </intension>
    <intension> imp(eq(kp[5],1),eq(kn[0],0)) </intension>
    <intension> imp(eq(kp[6],1),eq(kn[15],0)) </intension>
    <intension> imp(eq(kp[7],1),eq(kn[11],0)) </intension>
    <intension> imp(eq(kp[8],1),eq(kn[7],0)) </intension>
    <intension> imp(eq(kp[9],1),eq(kn[9],0)) </intension>
    <intension> or(ne(kn[0],1),lo[16],lo[17],lo[18],lo[19],lo[20]) </intension>
    <intension> or(eq(kn[0],1),eq(kn[0],0)) </intension>
    <intension> or(ne(kn[1],1),lo[65],lo[66],lo[67]) </intension>
    <intension> or(eq(kn[1],1),eq(kn[1],0)) </intension>
    <intension> or(ne(kn[2],1),lo[24],lo[26],lo[27]) </intension>
    <intension> or(eq(kn[2],1),eq(kn[2],0)) </intension>
    <intension> or(ne(kn[3],1),lo[49],lo[50]) </intension>
    <intension> or(eq(kn[3],1),eq(kn[3],0)) </intension>
    <intension> or(ne(kn[4],1),lo[25],lo[51]) </intension>
    <intension> or(eq(kn[4],1),eq(kn[4],0)) </intension>
    <intension> or(ne(kn[5],1),lo[3],lo[4],lo[5],lo[6],lo[7],lo[23]) </intension>
    <intension> or(eq(kn[5],1),eq(kn[5],0)) </intension>
    <intension> or(ne(kn[6],1),lo[28],lo[29],lo[30],lo[31],lo[32]) </intension>
    <intension> or(eq(kn[6],1),eq(kn[6],0)) </intension>
    <intension> or(ne(kn[7],1),lo[38],lo[39],lo[40],lo[41]) </intension>
    <intension> or(eq(kn[7],1),eq(kn[7],0)) </intension>
    <intension> or(ne(kn[8],1),lo[52],lo[53],lo[54]) </intension>
    <intension> or(eq(kn[8],1),eq(kn[8],0)) </intension>
    <intension> or(ne(kn[9],1),lo[55],lo[56],lo[57],lo[58]) </intension>
    <intension> or(eq(kn[9],1),eq(kn[9],0)) </intension>
    <intension> or(ne(kn[10],1),lo[42],lo[43],lo[44]) </intension>
    <intension> or(eq(kn[10],1),eq(kn[10],0)) </intension>
    <intension> or(ne(kn[11],1),lo[8],lo[9],lo[10],lo[11]) </intension>
    <intension> or(eq(kn[11],1),eq(kn[11],0)) </intension>
    <intension> or(ne(kn[12],1),lo[62],lo[63],lo[64]) </intension>
    <intension> or(eq(kn[12],1),eq(kn[12],0)) </intension>
    <intension> or(ne(kn[13],1),lo[12],lo[13],lo[14],lo[15]) </intension>
    <intension> or(eq(kn[13],1),eq(kn[13],0)) </intension>
    <intension> or(ne(kn[14],1),lo[45],lo[46],lo[47],lo[48]) </intension>
    <intension> or(eq(kn[14],1),eq(kn[14],0)) </intension>
    <intension> or(ne(kn[15],1),lo[0],lo[1],lo[2]) </intension>
    <intension> or(eq(kn[15],1),eq(kn[15],0)) </intension>
    <intension> or(ne(kn[16],1),lo[68],lo[69]) </intension>
    <intension> or(eq(kn[16],1),eq(kn[16],0)) </intension>
    <intension> or(ne(kn[17],1),lo[33],lo[34],lo[35],lo[36],lo[37]) </intension>
    <intension> or(eq(kn[17],1),eq(kn[17],0)) </intension>
    <intension> or(ne(kn[18],1),lo[59],lo[60],lo[61]) </intension>
    <intension> or(eq(kn[18],1),eq(kn[18],0)) </intension>
    <intension> or(ne(kn[19],1),lo[21],lo[22]) </intension>
    <intension> or(eq(kn[19],1),eq(kn[19],0)) </intension>
    <sum>
      <list> lo[] kn[] </list>
      <coeffs> 1x70 -1x20 </coeffs>
      <condition> (eq,0) </condition>
    </sum>
    <sum note="The sum of the learning objects cannot exceed the max time">
      <list> lo[] </list>
      <coeffs> 31000 39500 90000 97500 58200 52500 36500 85200 96900 15200 76500 77800 71300 76300 64800 30700 112700 74700 22900 16700 57300 71700 88800 66300 425700 54700 177500 28500 123800 56000 80200 49500 40000 206000 75000 50500 68500 41300 371000 79000 23800 57500 83800 19300 46300 96800 86100 25700 84300 31300 42300 21800 80700 186700 57500 129000 27200 21200 63200 84400 74300 31000 23100 50000 50500 47200 207000 116500 25400 49500 </coeffs>
      <condition> (le,900000) </condition>
    </sum>
    <sum>
      <list> lo[] </list>
      <coeffs> 18 18 12 28 18 13 3 20 18 18 3 3 28 18 13 13 18 2 18 18 18 28 13 18 30 18 2 28 18 18 13 13 13 28 28 12 2 2 18 13 18 3 18 18 18 28 28 28 5 2 28 3 3 18 18 20 3 19 17 28 12 12 28 28 13 18 5 2 28 3 </coeffs>
      <condition> (eq,adaptivity_score) </condition>
    </sum>
  </constraints>
  <objectives>
    <maximize> adaptivity_score </maximize>
  </objectives>
</instance>
